! engrad B3LYP def2-TZVP 
%pal nprocs 16 end 
*xyz 0 1 
O   0.0 0.0 0.119262
H   0.0 0.763239 -0.477047
H   0.0 -0.763239 -0.477047
*
